%chk=Rh-PP-CO-b-hydride-Elim-TS.chk
%nprocshared=12
%mem=24GB
# opt=(modredundant,maxcycles=1000) freq=noraman
scrf=(smd,solvent=THF) def2svp int=grid=ultrafine m06l
scf=(xqc,maxcycles=1000)

Rh-PP

0 1
