%chk=Rh-PP-BzO-Aldehyde-OxiAddn-TS.chk
%nprocshared=12
%mem=24GB
# opt=(modredundant,maxcycles=200) freq=noraman
scrf=(smd,solvent=THF) def2svp int=grid=ultrafine m06l
scf=(xqc,maxcycles=1000)

Rh-PP

0 1
